% seed = 0

mint = 35;
% maxt = 160;

nActs = 62;
dur = [0,1,1,3,2,3,3,2,1,1,1,3,2,6,2,2,2,1,2,2,4,2,4,4,3,4,4,2,2,4,1,2,2,5,2,3,2,3,2,3,2,4,2,2,5,2,3,3,2,6,2,1,2,4,4,3,6,2,1,2,4,0];

nSkills = 15;
sreq = [| 0,0,0,0,0,0,0,0,0,0,0,0,0,0,0,
	| 0,0,0,0,0,0,0,0,0,1,0,0,0,0,1,
	| 0,0,0,0,0,1,0,0,0,1,0,1,0,0,0,
	| 0,0,0,0,0,0,0,1,0,0,0,0,0,1,0,
	| 0,0,1,0,0,0,0,0,0,0,0,0,0,0,0,
	| 0,0,0,0,1,0,0,0,0,0,0,0,0,0,0,
	| 0,0,0,1,1,0,0,0,0,0,0,1,0,0,0,
	| 0,0,0,0,0,0,0,0,0,0,1,0,0,0,0,
	| 0,1,0,0,0,0,0,0,0,0,0,1,0,0,0,
	| 0,0,0,0,0,0,0,1,0,0,0,1,0,0,0,
	| 0,0,0,0,0,0,0,0,0,0,3,0,0,0,0,
	| 0,0,0,0,0,0,0,0,0,1,1,1,0,0,0,
	| 0,0,0,0,0,1,0,2,0,1,0,0,0,0,0,
	| 0,1,0,0,0,0,1,0,0,0,0,2,0,0,0,
	| 0,0,0,0,0,0,0,1,0,0,0,0,0,0,0,
	| 0,0,0,0,0,0,0,1,0,1,1,0,0,0,0,
	| 0,0,0,0,0,0,0,0,0,0,1,2,1,0,1,
	| 0,0,0,0,0,1,0,0,3,0,0,1,0,0,0,
	| 0,0,1,0,0,2,0,0,1,0,1,0,1,0,0,
	| 0,0,0,0,0,0,0,0,1,0,0,0,0,0,0,
	| 0,0,1,0,0,0,0,0,1,0,0,3,0,0,1,
	| 0,0,0,0,0,0,0,0,0,0,0,1,0,0,0,
	| 0,0,0,0,0,0,0,0,1,0,0,1,0,0,1,
	| 0,0,0,0,0,0,0,1,0,0,0,0,0,0,0,
	| 0,0,0,0,0,0,0,0,0,0,0,1,0,0,0,
	| 0,0,1,0,0,0,1,1,0,0,1,0,0,0,0,
	| 0,0,0,0,1,0,0,0,0,1,0,0,0,0,0,
	| 0,0,0,0,0,0,0,0,1,0,0,2,1,1,0,
	| 0,0,0,0,0,1,0,0,0,0,1,1,1,0,0,
	| 0,0,1,0,0,0,0,0,0,1,0,2,0,0,1,
	| 0,0,0,0,0,1,0,0,1,1,0,1,0,1,0,
	| 0,0,0,0,1,0,0,0,0,0,0,2,1,0,0,
	| 0,0,0,0,0,0,1,0,0,0,1,0,0,0,0,
	| 0,0,1,0,0,1,0,0,0,1,0,0,0,0,0,
	| 0,0,1,0,0,0,0,1,0,0,0,0,0,0,0,
	| 0,0,0,0,0,1,0,0,0,0,0,1,0,1,0,
	| 0,0,0,0,0,1,0,0,0,1,0,3,0,1,0,
	| 0,0,0,0,0,0,0,0,0,2,0,1,0,0,0,
	| 0,0,0,0,1,0,0,0,0,0,0,0,0,0,0,
	| 0,0,0,0,0,0,0,1,0,1,0,0,0,1,0,
	| 0,0,0,0,0,0,1,0,0,0,1,0,0,0,0,
	| 0,0,0,0,0,0,0,1,1,0,1,1,0,1,0,
	| 0,0,0,0,0,0,1,0,0,0,0,0,0,1,0,
	| 1,0,0,0,0,1,0,0,0,0,0,0,0,0,0,
	| 0,0,0,0,0,0,0,0,1,1,0,0,0,1,0,
	| 0,0,0,0,0,1,0,0,0,0,0,0,0,0,0,
	| 0,0,0,0,0,0,0,0,0,0,0,2,0,0,1,
	| 0,0,1,1,0,0,0,0,0,0,0,1,0,0,0,
	| 0,0,0,0,1,0,0,0,0,0,0,1,0,0,0,
	| 0,0,1,0,0,0,0,1,0,0,0,1,0,1,0,
	| 0,0,0,0,1,0,0,0,0,0,0,0,0,0,0,
	| 0,0,0,1,0,0,0,0,0,1,2,0,0,0,0,
	| 0,0,0,1,0,0,0,1,0,0,0,1,0,1,0,
	| 0,0,0,0,0,0,0,1,0,0,0,0,0,0,0,
	| 0,0,0,0,0,0,0,0,1,0,1,1,0,0,0,
	| 0,0,0,0,0,0,0,0,0,1,1,1,0,1,0,
	| 0,0,0,0,0,0,0,1,2,0,0,2,0,0,0,
	| 0,0,0,0,0,0,0,0,1,0,0,0,0,0,0,
	| 0,0,0,1,1,0,0,0,0,0,2,1,0,0,0,
	| 0,0,0,0,1,0,0,0,0,1,1,1,0,0,0,
	| 0,0,0,0,0,1,0,0,0,0,0,0,0,0,0,
	| 0,0,0,0,0,0,0,0,0,0,0,0,0,0,0, |];

% SumOfsreq = 176;

nResources = 20;
mastery = [| false,false,false,false,false,false,true,true,true,true,true,true,false,false,false,
	| false,false,false,false,false,false,true,true,true,true,true,true,false,false,false,
	| false,false,false,false,false,false,false,false,false,true,true,true,false,false,false,
	| false,false,false,true,true,true,false,false,false,false,false,false,true,true,true,
	| false,false,false,true,true,true,false,false,false,false,false,true,false,false,true,
	| false,false,false,false,false,false,false,true,true,false,false,false,false,false,false,
	| false,false,true,false,false,false,false,false,false,false,false,false,false,false,false,
	| false,false,false,false,false,false,false,false,false,false,true,true,false,false,false,
	| false,false,false,false,false,false,false,false,true,false,false,false,false,false,false,
	| false,false,false,false,false,false,false,false,false,true,true,true,false,false,false,
	| false,false,false,false,false,false,false,false,false,false,false,false,false,true,true,
	| false,false,false,false,false,false,true,true,true,false,false,false,true,true,true,
	| false,false,false,false,false,false,false,false,false,true,true,true,false,false,false,
	| false,false,false,false,false,false,false,false,false,true,true,true,false,false,false,
	| false,false,false,false,false,false,false,false,false,false,false,false,false,false,true,
	| false,false,false,true,true,true,false,false,false,false,true,true,true,true,true,
	| false,false,false,true,true,true,true,true,true,false,false,true,false,false,false,
	| true,true,true,false,false,false,false,false,false,false,false,false,true,true,true,
	| false,false,false,false,false,false,false,false,false,false,false,true,false,false,false,
	| false,false,false,false,false,false,false,false,false,true,true,true,false,false,false, |];

nPrecs = 131;
pred = [1,1,1,2,2,2,3,3,3,4,4,4,5,5,5,6,6,6,7,7,7,8,8,9,9,9,10,10,10,11,11,12,12,12,13,13,13,14,14,14,15,15,15,16,16,16,17,17,17,18,18,18,19,19,19,20,20,20,21,21,21,22,22,22,23,23,24,24,24,25,25,25,26,26,27,27,27,28,29,29,29,30,31,31,32,32,32,33,33,33,34,35,35,36,36,37,37,37,38,38,38,39,40,40,41,42,43,43,43,44,44,45,46,46,47,48,49,50,51,52,53,53,54,55,56,57,57,58,59,60,61];
succ = [2,3,4,10,27,14,9,6,7,21,5,53,19,60,31,13,22,15,40,31,8,54,32,30,39,32,18,11,12,57,21,20,30,48,17,19,16,28,29,48,35,46,16,25,23,32,51,44,24,21,55,24,35,36,30,33,38,55,42,37,45,26,36,23,51,54,25,49,29,26,28,42,53,39,28,29,38,52,41,31,56,34,57,34,42,44,48,34,36,37,47,41,55,41,46,43,46,39,50,45,53,50,43,45,47,58,50,51,44,59,52,49,59,47,61,49,60,54,52,58,57,56,58,56,61,59,61,60,62,62,62];

nUnrels = 1035;
unpred = [2,2,2,2,2,2,2,2,2,2,2,2,2,2,2,2,2,3,3,3,3,3,3,3,3,3,3,3,3,3,4,4,4,4,4,4,4,4,4,4,4,4,4,4,4,4,4,4,4,4,4,4,4,4,4,4,4,5,5,5,5,5,5,5,5,5,5,5,5,5,5,5,5,5,5,5,5,5,5,5,5,5,5,5,5,5,5,5,5,5,5,5,5,5,5,5,5,5,6,6,6,6,6,6,6,6,6,6,6,6,6,6,6,6,6,7,7,7,7,7,7,7,7,7,7,7,7,7,7,7,7,7,7,7,7,7,7,7,7,7,7,7,7,7,7,7,7,7,8,8,8,8,8,8,8,8,8,8,8,8,8,8,8,8,8,8,8,8,8,8,8,8,8,8,8,8,8,8,8,8,8,8,8,8,8,8,8,8,8,8,8,9,9,9,9,9,9,9,9,9,9,9,9,9,9,9,9,9,9,9,9,9,9,9,9,9,9,9,9,9,9,9,9,9,9,9,9,10,10,10,10,10,10,10,10,10,10,10,10,11,11,11,11,11,11,11,11,11,11,11,11,11,11,11,11,11,11,11,11,11,11,11,11,11,11,11,11,11,11,11,12,12,12,12,12,12,12,12,12,12,12,12,12,12,12,12,12,12,12,12,12,13,13,13,13,13,13,13,13,13,13,13,13,13,14,14,14,14,14,14,14,14,14,14,14,14,14,14,14,14,14,14,14,14,14,14,14,14,14,14,14,14,14,14,14,14,15,15,15,15,15,15,15,15,15,15,15,15,15,15,15,15,15,15,15,16,16,16,16,16,16,16,16,16,16,16,16,16,16,16,16,16,16,16,16,16,16,16,16,17,17,17,17,17,17,17,17,17,17,17,17,17,17,17,17,17,17,17,17,18,18,18,18,18,18,18,18,18,18,18,18,18,19,19,19,19,19,19,19,19,19,19,19,19,19,19,19,19,19,19,19,19,19,19,19,19,19,19,19,19,19,19,19,20,20,20,20,20,20,20,20,20,20,20,20,20,20,20,20,21,21,21,21,21,21,21,21,21,21,21,21,21,21,21,21,21,21,21,21,21,21,21,22,22,22,22,22,22,22,22,22,22,22,22,22,22,22,22,22,22,22,22,22,23,23,23,23,23,23,23,23,23,23,23,23,23,23,23,23,23,23,23,23,23,23,23,23,23,23,23,23,23,23,23,23,23,24,24,24,24,24,24,24,24,24,24,24,24,24,24,24,24,25,25,25,25,25,25,25,25,25,25,25,25,25,25,25,25,25,25,25,25,25,25,26,26,26,26,26,26,26,26,26,26,26,26,26,26,26,26,26,26,26,26,26,26,26,26,26,27,27,27,27,27,27,27,27,27,27,27,27,27,27,27,28,28,28,28,28,28,28,28,28,28,28,28,28,28,28,28,28,28,28,28,28,28,28,28,28,28,28,28,28,28,29,29,29,29,29,29,29,29,29,29,29,29,29,29,29,29,29,29,29,29,29,29,29,29,30,30,30,30,30,30,30,30,30,30,30,30,30,30,30,30,30,30,30,30,30,30,30,30,30,30,30,30,31,31,31,31,31,31,31,31,31,31,31,31,31,31,31,31,31,31,31,31,31,31,31,31,31,32,32,32,32,32,32,32,32,32,32,32,32,32,32,32,32,32,32,32,32,32,33,33,33,33,33,33,33,33,33,33,33,34,34,34,34,34,34,34,34,34,34,34,34,34,34,34,34,34,34,34,34,34,34,34,34,34,35,35,35,35,35,35,35,35,35,35,35,35,35,35,35,35,35,35,35,35,35,36,36,36,36,36,36,36,36,36,36,36,36,36,36,36,36,36,36,36,36,37,37,37,37,37,37,37,37,37,37,37,38,38,38,38,38,38,38,38,38,38,38,38,39,39,39,39,39,39,39,39,39,39,39,39,39,39,39,39,39,39,40,40,40,40,40,40,40,40,40,40,41,41,41,41,41,41,41,41,41,41,41,41,41,41,41,41,41,41,42,42,42,42,42,42,42,42,42,42,42,42,42,42,42,42,42,43,43,43,43,43,43,43,43,43,43,44,44,44,44,44,44,44,44,44,44,44,44,44,45,45,45,45,45,45,45,45,45,45,45,45,45,45,46,46,46,46,46,46,46,46,46,46,46,46,47,47,47,47,47,47,47,47,47,47,47,47,47,48,48,48,48,48,48,48,48,48,48,48,49,49,49,49,49,49,49,49,49,49,49,50,50,50,50,50,50,50,50,51,51,51,51,51,51,51,52,52,52,52,52,52,52,53,53,53,53,54,54,54,54,54,55,55,55,55,56,56,56,56,57,57,58,58,59,59,60];
unsucc = [3,4,5,6,7,8,9,13,15,16,17,19,22,23,32,35,40,4,5,10,11,12,14,18,20,21,27,33,37,38,6,7,8,9,10,11,12,13,14,15,16,17,18,20,22,23,24,25,26,27,28,29,32,33,38,40,48,6,7,8,9,10,11,12,13,14,15,16,17,18,20,21,22,23,24,25,26,27,28,29,32,33,37,38,39,40,42,43,44,45,48,49,50,51,52,53,54,58,7,8,9,10,11,12,14,18,20,21,27,33,37,38,40,43,45,9,10,11,12,13,14,15,16,17,18,19,20,21,22,23,24,25,26,27,28,29,30,33,35,36,37,38,39,41,46,53,55,56,9,10,11,12,13,14,15,16,17,18,19,20,21,22,23,24,25,26,27,28,29,30,31,33,34,35,36,37,38,39,40,41,43,45,46,47,50,51,53,55,56,57,61,10,11,12,13,14,15,16,17,18,19,20,21,22,23,24,25,26,27,28,29,31,33,35,36,37,38,40,41,43,45,46,51,53,55,56,57,13,14,15,16,17,19,22,23,27,32,35,40,12,13,14,15,16,17,18,19,20,22,23,24,25,26,27,28,29,30,31,32,33,34,35,36,38,40,41,48,53,55,56,13,14,15,16,17,18,19,21,22,23,24,25,26,27,28,29,31,32,35,40,42,14,15,18,20,21,22,27,33,37,38,40,43,45,15,16,17,18,19,20,21,22,23,24,25,26,27,30,32,33,35,36,37,38,39,40,42,43,44,45,46,50,51,53,54,55,17,18,19,20,21,22,24,27,29,30,31,33,34,36,37,38,40,43,45,17,18,19,20,21,22,24,27,29,30,31,33,34,35,36,37,38,40,41,43,45,46,47,55,18,19,20,21,22,23,27,30,32,33,35,36,37,38,40,43,45,46,48,55,19,20,22,23,27,30,32,33,35,36,38,40,48,20,21,22,23,24,25,26,27,28,29,31,32,33,37,38,39,40,42,43,44,45,48,49,50,51,52,53,54,57,58,60,21,22,23,24,25,26,27,28,29,30,31,32,35,40,42,48,22,23,24,25,26,27,28,29,30,31,32,33,34,35,36,38,40,41,48,53,55,56,57,24,25,27,28,29,30,31,32,33,34,35,37,38,40,42,43,44,45,48,49,55,24,25,26,27,28,29,30,31,32,33,34,35,36,37,38,39,40,41,42,43,44,45,46,47,48,49,50,53,55,56,57,59,61,27,30,32,33,35,36,37,38,40,43,44,45,46,48,51,55,27,29,30,31,32,33,34,35,36,37,38,40,41,43,44,45,46,47,48,49,51,55,27,28,29,30,31,32,33,34,35,36,37,38,40,41,42,43,44,45,46,47,48,49,51,52,55,30,32,33,35,36,37,39,40,42,43,44,46,48,51,55,29,30,31,32,33,34,35,36,37,38,39,40,41,42,43,44,45,46,47,48,49,50,51,53,54,55,56,57,59,61,30,32,33,35,36,37,38,39,40,42,43,44,45,46,48,49,50,51,52,53,54,55,58,60,31,32,33,35,36,37,38,39,40,41,42,43,44,45,46,48,49,50,51,52,53,54,55,56,57,58,59,60,32,33,35,36,37,38,39,40,41,42,43,44,45,46,48,49,50,51,52,53,54,55,56,58,60,33,34,35,36,37,38,39,40,41,43,45,46,47,50,51,53,54,55,56,57,61,35,38,40,42,45,48,49,53,55,56,57,35,36,37,38,39,40,41,42,43,44,45,46,48,49,50,51,52,53,54,55,56,57,58,59,60,36,37,38,39,40,42,43,44,45,46,48,49,50,51,52,53,54,57,58,59,60,37,38,39,40,42,43,44,45,48,49,50,51,52,53,54,55,56,57,58,60,38,40,41,42,45,48,49,53,55,56,57,39,40,41,42,43,44,46,47,48,51,52,55,40,41,42,43,44,45,46,47,48,49,51,52,53,55,56,57,59,61,41,42,46,47,48,53,55,56,57,61,42,43,44,45,46,48,49,50,51,52,53,54,55,56,57,58,59,60,43,44,45,46,47,48,49,50,51,52,53,54,55,56,57,59,61,45,46,47,48,49,53,55,56,57,61,45,46,47,48,49,50,51,53,54,55,56,57,61,46,47,48,50,51,52,53,54,55,56,57,58,59,61,48,49,50,51,52,53,54,55,56,57,58,60,48,49,50,51,52,53,54,55,56,57,58,59,60,50,51,52,53,54,55,56,57,58,59,61,50,51,52,53,54,55,56,57,58,59,61,51,52,53,55,56,57,59,61,53,54,55,56,57,59,61,53,54,55,56,57,59,61,54,55,58,60,55,56,57,59,61,57,58,59,60,57,58,59,60,58,60,59,61,60,61,61];

USEFUL_RES = [{},
	{1,2,3,4,5,10,11,12,13,14,15,16,18,20},
	{1,2,3,4,5,8,10,13,14,16,17,19,20},
	{1,2,4,6,11,12,16,17,18},
	{7,18},
	{4,5,16,17},
	{1,2,3,4,5,8,10,13,14,16,17,19,20},
	{1,2,3,8,10,13,14,16,20},
	{1,2,3,5,8,10,13,14,16,17,18,19,20},
	{1,2,3,5,6,8,10,12,13,14,16,17,19,20},
	{1,2,3,8,10,13,14,16,20},
	{1,2,3,5,8,10,13,14,16,17,19,20},
	{1,2,3,4,5,6,10,12,13,14,16,17,20},
	{1,2,3,5,8,10,12,13,14,16,17,18,19,20},
	{1,2,6,12,17},
	{1,2,3,6,8,10,12,13,14,16,17,20},
	{1,2,3,4,5,8,10,11,12,13,14,15,16,17,18,19,20},
	{1,2,3,4,5,6,8,9,10,12,13,14,16,17,19,20},
	{1,2,3,4,5,6,7,8,9,10,12,13,14,16,17,18,20},
	{1,2,6,9,12,17},
	{1,2,3,4,5,6,7,8,9,10,11,12,13,14,15,16,17,18,19,20},
	{1,2,3,5,8,10,13,14,16,17,19,20},
	{1,2,3,4,5,6,8,9,10,11,12,13,14,15,16,17,18,19,20},
	{1,2,6,12,17},
	{1,2,3,5,8,10,13,14,16,17,19,20},
	{1,2,3,6,7,8,10,12,13,14,16,17,18,20},
	{1,2,3,4,5,10,13,14,16,17,20},
	{1,2,3,4,5,6,8,9,10,11,12,13,14,16,17,18,19,20},
	{1,2,3,4,5,8,10,12,13,14,16,17,18,19,20},
	{1,2,3,4,5,7,8,10,11,12,13,14,15,16,17,18,19,20},
	{1,2,3,4,5,6,8,9,10,11,12,13,14,16,17,18,19,20},
	{1,2,3,4,5,8,10,12,13,14,16,17,18,19,20},
	{1,2,3,8,10,12,13,14,16,17,20},
	{1,2,3,4,5,7,10,13,14,16,17,18,20},
	{1,2,6,7,12,17,18},
	{1,2,3,4,5,8,10,11,12,13,14,16,17,18,19,20},
	{1,2,3,4,5,8,10,11,12,13,14,16,17,18,19,20},
	{1,2,3,5,8,10,13,14,16,17,19,20},
	{4,5,16,17},
	{1,2,3,4,6,10,11,12,13,14,16,17,18,20},
	{1,2,3,8,10,12,13,14,16,17,20},
	{1,2,3,4,5,6,8,9,10,11,12,13,14,16,17,18,19,20},
	{1,2,4,11,12,16,17,18},
	{4,5,16,17,18},
	{1,2,3,4,6,9,10,11,12,13,14,16,17,18,20},
	{4,5,16,17},
	{1,2,3,4,5,8,10,11,12,13,14,15,16,17,18,19,20},
	{1,2,3,4,5,7,8,10,13,14,16,17,18,19,20},
	{1,2,3,4,5,8,10,13,14,16,17,19,20},
	{1,2,3,4,5,6,7,8,10,11,12,13,14,16,17,18,19,20},
	{4,5,16,17},
	{1,2,3,4,5,8,10,13,14,16,17,20},
	{1,2,3,4,5,6,8,10,11,12,13,14,16,17,18,19,20},
	{1,2,6,12,17},
	{1,2,3,5,6,8,9,10,12,13,14,16,17,19,20},
	{1,2,3,4,5,8,10,11,12,13,14,16,17,18,19,20},
	{1,2,3,5,6,8,9,10,12,13,14,16,17,19,20},
	{1,2,6,9,12,17},
	{1,2,3,4,5,8,10,13,14,16,17,19,20},
	{1,2,3,4,5,8,10,13,14,16,17,19,20},
	{4,5,16,17},
	{}];

POTENTIAL_ACT = [{2,3,4,7,8,9,10,11,12,13,14,15,16,17,18,19,20,21,22,23,24,25,26,27,28,29,30,31,32,33,34,35,36,37,38,40,41,42,43,45,47,48,49,50,52,53,54,55,56,57,58,59,60},
	{2,3,4,7,8,9,10,11,12,13,14,15,16,17,18,19,20,21,22,23,24,25,26,27,28,29,30,31,32,33,34,35,36,37,38,40,41,42,43,45,47,48,49,50,52,53,54,55,56,57,58,59,60},
	{2,3,7,8,9,10,11,12,13,14,16,17,18,19,21,22,23,25,26,27,28,29,30,31,32,33,34,36,37,38,40,41,42,45,47,48,49,50,52,53,55,56,57,59,60},
	{2,3,4,6,7,13,17,18,19,21,23,27,28,29,30,31,32,34,36,37,39,40,42,43,44,45,46,47,48,49,50,51,52,53,56,59,60,61},
	{2,3,6,7,9,10,12,13,14,17,18,19,21,22,23,25,27,28,29,30,31,32,34,36,37,38,39,42,44,46,47,48,49,50,51,52,53,55,56,57,59,60,61},
	{4,10,13,15,16,18,19,20,21,23,24,26,28,31,35,40,42,45,50,53,54,55,57,58},
	{5,19,21,26,30,34,35,48,50},
	{3,7,8,9,10,11,12,14,16,17,18,19,21,22,23,25,26,28,29,30,31,32,33,36,37,38,41,42,47,48,49,50,52,53,55,56,57,59,60},
	{18,19,20,21,23,28,31,42,45,55,57,58},
	{2,3,7,8,9,10,11,12,13,14,16,17,18,19,21,22,23,25,26,27,28,29,30,31,32,33,34,36,37,38,40,41,42,45,47,48,49,50,52,53,55,56,57,59,60},
	{2,4,17,21,23,28,30,31,36,37,40,42,43,45,47,50,53,56},
	{2,4,10,13,14,15,16,17,18,19,20,21,23,24,26,28,29,30,31,32,33,35,36,37,40,41,42,43,45,47,50,53,54,55,56,57,58},
	{2,3,7,8,9,10,11,12,13,14,16,17,18,19,21,22,23,25,26,27,28,29,30,31,32,33,34,36,37,38,40,41,42,45,47,48,49,50,52,53,55,56,57,59,60},
	{2,3,7,8,9,10,11,12,13,14,16,17,18,19,21,22,23,25,26,27,28,29,30,31,32,33,34,36,37,38,40,41,42,45,47,48,49,50,52,53,55,56,57,59,60},
	{2,17,21,23,30,47},
	{2,3,4,6,7,8,9,10,11,12,13,14,16,17,18,19,21,22,23,25,26,27,28,29,30,31,32,33,34,36,37,38,39,40,41,42,43,44,45,46,47,48,49,50,51,52,53,55,56,57,59,60,61},
	{3,4,6,7,9,10,12,13,14,15,16,17,18,19,20,21,22,23,24,25,26,27,28,29,30,31,32,33,34,35,36,37,38,39,40,41,42,43,44,45,46,47,48,49,50,51,52,53,54,55,56,57,58,59,60,61},
	{2,4,5,9,14,17,19,21,23,26,28,29,30,31,32,34,35,36,37,40,42,43,44,45,47,48,50,53,56},
	{3,7,9,10,12,14,17,18,21,22,23,25,28,29,30,31,32,36,37,38,42,47,48,49,50,53,55,56,57,59,60},
	{2,3,7,8,9,10,11,12,13,14,16,17,18,19,21,22,23,25,26,27,28,29,30,31,32,33,34,36,37,38,40,41,42,45,47,48,49,50,52,53,55,56,57,59,60}];
